Route #1: 9 42 51 53 21 160 61 6 106 56 156
Route #2: 31 159 167 25 12 26
Route #3: 169 40 174 49 23 32 27 97 2 140
Route #4: 63 139 67 124 47 17 132 78 16 149 88 66 138
Route #5: 122 60 98 171 111 90 3 10 143
Route #6: 115 87 76 107 105 129 37 112 146 108 141 50 94 59 46 150 43 20 116 82 89 137 136 72
Route #7: 165 75 70 163 54 109 1 100 24 41 74 65 151 135 99 154 148
Route #8: 153 172 15 58 161 101 36 127 157 93 14 175
Route #9: 57 91 77 7 142 162 55 134 28 110 119 48 83 38 117 64 81 173 131
Route #10: 29 80 126 152 68 5 18 130
Route #11: 92 144 11 71 22 118 104
Route #12: 69 33 170 13 86 34 30
Route #13: 120 79 147 166 19 155 8 113 84 121 145 123 102 73 62 39 114
Route #14: 44 133 158 35 45 4 52 128 125 85 168 164 95 96 103
Cost 28979.000000